
Gurobi 10.0.0 (win64) logging started Thu Jun 13 12:33:11 2024

Set parameter LogFile to value "C:\Users\ealvarezq\Documents\GitHub\Comillas\Models\JointResearch\05. Models\06.Benchmarking\E.Representative_days_based_on_Line_Benefits_OptModel\RTS24_mod2_ByStages_nc70/openStarNet_RTS24_mod2_ByStages_nc70.log"
Set parameter Method to value 2
Set parameter MIPFocus to value 1
Set parameter Presolve to value 2
Set parameter RINS to value 100
Set parameter MIPGap to value 0.01
Set parameter Threads to value 9
Set parameter TimeLimit to value 259200
Set parameter IterationLimit to value 760000000
Gurobi Optimizer version 10.0.0 build v10.0.0rc2 (win64)

CPU model: Intel(R) Core(TM) i7-8700 CPU @ 3.20GHz, instruction set [SSE2|AVX|AVX2]
Thread count: 6 physical cores, 12 logical processors, using up to 9 threads

Optimize a model with 24853 rows, 16761 columns and 67653 nonzeros
Model fingerprint: 0xb3974822
Variable types: 16740 continuous, 21 integer (21 binary)
Coefficient statistics:
  Matrix range     [1e-03, 1e+03]
  Objective range  [1e+00, 1e+00]
  Bounds range     [4e-05, 3e+00]
  RHS range        [4e-05, 3e+00]
Presolve removed 14795 rows and 8479 columns
Presolve time: 0.13s
Presolved: 10058 rows, 8282 columns, 36301 nonzeros
Variable types: 8261 continuous, 21 integer (21 binary)
Found heuristic solution: objective 75.6692234
Root relaxation presolve removed 3 rows and 3 columns
Root relaxation presolved: 10055 rows, 8279 columns, 36295 nonzeros

Root barrier log...

Ordering time: 0.00s

Barrier statistics:
 Dense cols : 21
 AA' NZ     : 6.743e+04
 Factor NZ  : 1.934e+05 (roughly 9 MB of memory)
 Factor Ops : 3.966e+06 (less than 1 second per iteration)
 Threads    : 9

                  Objective                Residual
Iter       Primal          Dual         Primal    Dual     Compl     Time
   0   2.73846939e+06 -1.00466162e+08  2.24e+01 3.19e+02  3.59e+04     0s
   1   9.19549740e+05 -5.49531422e+07  7.49e+00 2.54e+01  1.09e+04     0s
   2   5.43248138e+04 -4.29956267e+07  4.61e-01 1.35e+01  2.31e+03     0s
   3   1.64872767e+04 -5.01493919e+06  9.39e-02 6.17e-10  2.43e+02     0s
   4   8.13770173e+03 -3.34532916e+05  2.55e-03 1.18e-10  1.47e+01     0s
   5   3.45528265e+03 -5.11118524e+04  1.76e-04 1.52e-11  2.33e+00     0s
   6   1.38252839e+03 -1.14479413e+04  2.08e-05 6.37e-12  5.47e-01     0s
   7   6.96224929e+02 -3.82147011e+03  8.34e-06 2.27e-12  1.93e-01     0s
   8   3.13957648e+02 -7.82021372e+02  2.85e-06 1.56e-12  4.67e-02     0s
   9   9.93962094e+01 -6.20730789e+01  4.37e-07 2.33e-12  6.89e-03     0s
  10   7.48069247e+01 -1.60526725e+01  2.52e-07 1.94e-12  3.87e-03     0s
  11   6.42412094e+01  4.35490381e+00  1.79e-07 1.28e-12  2.55e-03     0s
  12   5.51901867e+01  1.89675759e+01  1.18e-07 1.51e-12  1.54e-03     0s
  13   4.98083820e+01  2.45140776e+01  8.08e-08 2.62e-12  1.08e-03     0s
  14   4.35918545e+01  3.08979535e+01  3.64e-08 2.12e-12  5.41e-04     0s
  15   4.24175063e+01  3.50424010e+01  2.87e-08 2.25e-12  3.15e-04     0s
  16   4.03759738e+01  3.69827342e+01  1.48e-08 2.06e-12  1.45e-04     0s
  17   3.89023683e+01  3.75795841e+01  5.00e-09 3.03e-12  5.64e-05     0s
  18   3.84980826e+01  3.77903848e+01  2.66e-09 2.44e-12  3.02e-05     0s
  19   3.82890976e+01  3.78488736e+01  1.32e-09 3.67e-12  1.88e-05     0s
  20   3.81899788e+01  3.79366558e+01  6.89e-10 1.84e-12  1.08e-05     0s
  21   3.81414822e+01  3.79732929e+01  3.97e-10 1.79e-12  7.17e-06     0s
  22   3.81204440e+01  3.80095457e+01  2.82e-10 2.50e-12  4.73e-06     0s
  23   3.81006577e+01  3.80220815e+01  1.66e-10 1.15e-12  3.35e-06     0s
  24   3.80860174e+01  3.80557232e+01  7.89e-11 1.45e-12  1.29e-06     0s
  25   3.80741492e+01  3.80672047e+01  4.42e-11 1.92e-12  2.96e-07     0s
  26   3.80719306e+01  3.80708767e+01  2.26e-11 2.72e-12  4.49e-08     0s
  27   3.80716368e+01  3.80714044e+01  7.54e-10 2.34e-12  9.91e-09     0s
  28   3.80715572e+01  3.80714800e+01  2.16e-09 1.76e-12  3.29e-09     0s
  29   3.80715316e+01  3.80715026e+01  1.45e-09 1.98e-12  1.24e-09     0s
  30   3.80715122e+01  3.80715070e+01  3.83e-10 1.68e-12  2.22e-10     0s
  31   3.80715086e+01  3.80715077e+01  1.19e-10 2.06e-12  3.84e-11     0s
  32   3.80715078e+01  3.80715077e+01  4.16e-09 1.90e-12  3.68e-12     0s

Barrier solved model in 32 iterations and 0.40 seconds (0.43 work units)
Optimal objective 3.80715078e+01


Root relaxation: objective 3.807151e+01, 1246 iterations, 0.24 seconds (0.21 work units)

    Nodes    |    Current Node    |     Objective Bounds      |     Work
 Expl Unexpl |  Obj  Depth IntInf | Incumbent    BestBd   Gap | It/Node Time

     0     0   38.07151    0   16   75.66922   38.07151  49.7%     -    0s
H    0     0                      68.3009632   38.07151  44.3%     -    0s
     0     0   38.47111    0    9   68.30096   38.47111  43.7%     -    0s
     0     0   38.48732    0    8   68.30096   38.48732  43.7%     -    0s
H    0     0                      63.1465632   38.86339  38.5%     -    1s
     0     0   38.86339    0    9   63.14656   38.86339  38.5%     -    1s
     0     0   38.89659    0    8   63.14656   38.89659  38.4%     -    1s
     0     0   38.96191    0   11   63.14656   38.96191  38.3%     -    1s
     0     0   38.98286    0   10   63.14656   38.98286  38.3%     -    1s
     0     0   39.00569    0   11   63.14656   39.00569  38.2%     -    1s
H    0     0                      61.5311163   39.45128  35.9%     -    2s
     0     0   39.45128    0   10   61.53112   39.45128  35.9%     -    2s
     0     0   39.72511    0    9   61.53112   39.72511  35.4%     -    2s
H    0     0                      54.2445284   39.72511  26.8%     -    3s
     0     2   39.72511    0    9   54.24453   39.72511  26.8%     -    3s
    42    50   42.29391    7   11   54.24453   40.55850  25.2%   512    5s
   100    90   50.32838   10   11   54.24453   40.55850  25.2%   485   19s
   112   103   52.32672   11   10   54.24453   40.55850  25.2%   470   20s
   196   128   53.61335    9   10   54.24453   41.50734  23.5%   414   28s
   336   129   53.51494   10   10   54.24453   42.49510  21.7%   401   30s
   843   123   53.97890   14    6   54.24453   49.25121  9.21%   312   35s
  1142    68   52.73471    8    9   54.24453   51.44539  5.16%   284   40s

Cutting planes:
  Gomory: 5
  Implied bound: 24
  MIR: 376
  Relax-and-lift: 9

Explored 1345 nodes (361287 simplex iterations) in 41.07 seconds (52.78 work units)
Thread count was 9 (of 12 available processors)

Solution count 5: 54.2445 61.5311 63.1466 ... 75.6692

Optimal solution found (tolerance 1.00e-02)
Best objective 5.424452838678e+01, best bound 5.424452838678e+01, gap 0.0000%

Gurobi 10.0.0 (win64) logging started Thu Jun 13 12:33:56 2024

Set parameter LogFile to value "C:\Users\ealvarezq\Documents\GitHub\Comillas\Models\JointResearch\05. Models\06.Benchmarking\E.Representative_days_based_on_Line_Benefits_OptModel\RTS24_mod2_ByStages_nc70/openStarNet_RTS24_mod2_ByStages_nc70.log"
Set parameter Method to value 2
Set parameter MIPFocus to value 1
Set parameter Presolve to value 2
Set parameter RINS to value 100
Set parameter MIPGap to value 0.01
Set parameter Threads to value 9
Set parameter TimeLimit to value 259200
Set parameter IterationLimit to value 760000000
Gurobi Optimizer version 10.0.0 build v10.0.0rc2 (win64)

CPU model: Intel(R) Core(TM) i7-8700 CPU @ 3.20GHz, instruction set [SSE2|AVX|AVX2]
Thread count: 6 physical cores, 12 logical processors, using up to 9 threads

Optimize a model with 24853 rows, 16740 columns and 61752 nonzeros
Model fingerprint: 0x27a55d94
Coefficient statistics:
  Matrix range     [1e-03, 1e+03]
  Objective range  [1e+00, 1e+00]
  Bounds range     [4e-05, 3e+00]
  RHS range        [4e-05, 2e+01]
Presolve removed 20934 rows and 9686 columns
Presolve time: 0.03s
Presolved: 3919 rows, 7192 columns, 17699 nonzeros

Ordering time: 0.00s

Barrier statistics:
 AA' NZ     : 1.028e+04
 Factor NZ  : 3.859e+04 (roughly 4 MB of memory)
 Factor Ops : 5.642e+05 (less than 1 second per iteration)
 Threads    : 1

                  Objective                Residual
Iter       Primal          Dual         Primal    Dual     Compl     Time
   0   2.68821603e+06 -3.82496319e+07  1.74e+01 2.73e+03  3.66e+04     0s
   1   1.74315889e+05 -2.66354725e+07  1.09e+00 2.18e-11  3.92e+03     0s
   2   6.40558613e+04 -8.73325121e+06  3.86e-01 3.27e-11  1.02e+03     0s
   3   2.55403913e+04 -2.35000853e+06  6.21e-02 2.09e-11  2.10e+02     0s
   4   1.30092458e+04 -4.38753690e+05  3.35e-03 1.46e-11  3.62e+01     0s
   5   4.75670311e+03 -5.96397164e+04  1.79e-04 7.28e-12  5.12e+00     0s
   6   1.21898118e+03 -1.74367445e+04  2.23e-06 5.46e-12  1.48e+00     0s
   7   6.29599586e+02 -4.62148949e+03  1.09e-07 3.67e-12  4.17e-01     0s
   8   2.71703589e+02 -6.93884582e+02  9.37e-09 7.37e-12  7.67e-02     0s
   9   1.16297668e+02 -1.90760768e+02  2.19e-09 4.74e-12  2.44e-02     0s
  10   7.72963972e+01 -4.02265072e+01  5.95e-10 4.79e-12  9.33e-03     0s
  11   6.53096090e+01  2.15652174e+01  2.30e-10 4.89e-12  3.47e-03     0s
  12   5.95205320e+01  4.08617433e+01  9.08e-11 5.15e-12  1.48e-03     0s
  13   5.53934082e+01  5.05360316e+01  1.11e-11 4.92e-12  3.86e-04     0s
  14   5.44806352e+01  5.34129835e+01  6.51e-12 4.10e-12  8.48e-05     0s
  15   5.43025428e+01  5.39797353e+01  2.07e-11 3.36e-12  2.56e-05     0s
  16   5.42653633e+01  5.41632780e+01  1.66e-11 3.26e-12  8.11e-06     0s
  17   5.42517227e+01  5.42203957e+01  3.81e-12 4.57e-12  2.49e-06     0s
  18   5.42449679e+01  5.42418792e+01  7.50e-12 5.34e-12  2.45e-07     0s
  19   5.42445788e+01  5.42443220e+01  5.34e-11 4.15e-12  2.04e-08     0s
  20   5.42445287e+01  5.42445278e+01  1.75e-11 3.05e-12  7.04e-11     0s
  21   5.42445284e+01  5.42445284e+01  1.45e-11 5.47e-12  7.04e-14     0s

Barrier solved model in 21 iterations and 0.08 seconds (0.08 work units)
Optimal objective 5.42445284e+01

Crossover log...

     805 DPushes remaining with DInf 0.0000000e+00                 0s
       0 DPushes remaining with DInf 0.0000000e+00                 0s

     267 PPushes remaining with PInf 0.0000000e+00                 0s
       0 PPushes remaining with PInf 0.0000000e+00                 0s

  Push phase complete: Pinf 0.0000000e+00, Dinf 8.5795110e-13      0s

Iteration    Objective       Primal Inf.    Dual Inf.      Time
     279    5.4244528e+01   0.000000e+00   0.000000e+00      0s

Use crossover to convert LP symmetric solution to basic solution...
Crossover log...

       0 DPushes remaining with DInf 0.0000000e+00                 0s

     166 PPushes remaining with PInf 0.0000000e+00                 0s
       0 PPushes remaining with PInf 0.0000000e+00                 0s

  Push phase complete: Pinf 0.0000000e+00, Dinf 3.4740346e-13      0s

Iteration    Objective       Primal Inf.    Dual Inf.      Time
     462    5.4244528e+01   0.000000e+00   0.000000e+00      0s

Solved in 462 iterations and 0.13 seconds (0.10 work units)
Optimal objective  5.424452839e+01
